(set-logic QF_FPBV)
(set-info :source |Random FP created by PyMPF|)
(set-info :category random)
(set-info :status unsat)
;; fp.from.sbv(BitVec 128)
(declare-const x (_ BitVec 128))
(assert (bvsge x #b01110110011010100100110101110110001011001000011000010111011010011111101000111101010100111011000000011000000101010101001001001100))
;; x should be 157400858077866869654424383274001715788
(declare-const r Float16)
(assert (= r ((_ to_fp 5 11) RTP x)))
(assert (not (fp.geq r (fp #b0 #b11111 #b0000000000))))
(check-sat)
(exit)
